<number of tasks>
50

<cycle time>
1000

<order strength>
0.595


<task times>
1 466
2 313
3 434
4 451
5 412
6 469
7 366
8 382
9 455
10 518
11 570
12 610
13 490
14 241
15 411
16 514
17 583
18 578
19 421
20 852
21 792
22 670
23 467
24 561
25 429
26 397
27 523
28 582
29 475
30 415
31 475
32 327
33 484
34 562
35 598
36 524
37 580
38 446
39 322
40 373
41 680
42 483
43 536
44 436
45 417
46 404
47 491
48 618
49 495
50 473

<precedence relations>
1,6
2,7
3,5
3,8
4,8
5,9
6,11
7,10
8,11
8,12
8,13
8,14
9,16
10,15
11,16
11,17
11,18
11,19
12,16
12,17
12,18
12,19
13,16
13,17
13,18
13,19
14,16
14,17
14,18
14,19
15,21
16,20
16,22
16,23
16,24
16,25
16,26
17,22
17,23
17,24
17,25
17,26
18,22
18,23
18,24
18,25
18,26
19,22
19,23
19,24
19,25
19,26
20,27
21,29
22,28
22,29
22,30
22,40
23,46
23,48
23,49
24,29
24,30
24,40
25,30
25,33
26,30
26,40
26,41
26,49
27,31
28,32
29,33
30,46
30,48
31,35
32,36
33,34
33,37
34,38
35,40
36,39
37,41
37,42
38,45
39,43
40,46
40,48
41,44
42,46
43,48
44,47
45,48
45,49
46,50

<end>
